# Objective value = 44
WA1n 0
WA1p 0
WA2n 1
WA2p 0
WB1n 0
WB1p 0
WB2n 1
WB2p 0
WC1n 0
WC1p 0
WC2n 0
WC2p 1
WD1n 2
WD1p 0
WE1n 0
WE1p 2
WF1n 3
WF1p 0
WF2n 1
WF2p 0
WG1n 4
WG1p 0
WH1n 9
WH1p 0
WH2n 1
WH2p 0
WI1n 0
WI1p 9
WI2n 0
WI2p 1
WT1n 0
WT1p 3
5 7
a 0
b 0
c 0
d 0
e 0
f 1
g 0
h 1
i 0
j 0
k 0
l 0
m 0
n 1
o 1
p 1
